# Objective value = 156
WA1n 0
WA1p 0
WA2n 1
WA2p 0
WB1n 0
WB1p 0
WB2n 1
WB2p 0
WC1n 0
WC1p 1
WD1n 0
WD1p 1
WE1n 0
WE1p 1
WF1n 0
WF1p 1
WG1n 4
WG1p 0
WG2n 1
WG2p 0
WH1n 5
WH1p 0
WH2n 1
WH2p 0
WI1n 5
WI1p 0
WI2n 1
WI2p 0
WJ1n 5
WJ1p 0
WJ2n 1
WJ2p 0
WK1n 5
WK1p 0
WK2n 1
WK2p 0
WL1n 0
WL1p 5
WL2n 0
WL2p 1
WM1n 0
WM1p 5
WM2n 0
WM2p 1
WN1n 37
WN1p 0
WN2n 1
WN2p 0
WO1n 37
WO1p 0
WO2n 1
WO2p 0
WT1n 22
WT1p 0
5 7
a 0
b 0
c 0
d 0
e 1
f 1
g 1
h 1
i 0
j 0
k 0
l 0
m 0
n 0
o 0
p 0
q 0
r 0
s 1
t 1
u 1
v 1
w 0
x 0
y 0
z 0
aa 0
